decision_x1=[0,4];
decision_x2=[0,4];
decision_x3=[0,4];
decision_x4=[0,4];
random_y1=[0,4];
random_y2=[0,4];
constraint_x3_x1=[
0,1,8.9|
0,2,5.7|
0,3,5.7|
0,4,2.1|
1,0,3.1|
1,2,3|
1,3,7.9|
1,4,6.6|
2,0,5|
2,1,3.8|
2,3,1.8|
2,4,1.2|
3,0,0.43|
3,1,1.9|
3,2,9.9|
3,4,5.8|
4,0,0.97|
4,1,8.3|
4,2,2.8|
4,3,1.3|
];
constraint_x3_x2=[
0,1,4.6|
0,2,2.2|
0,3,6.1|
0,4,2.3|
1,0,3.3|
1,2,0.62|
1,3,4|
1,4,4.1|
2,0,5.9|
2,1,9.8|
2,3,3.7|
2,4,5.8|
3,0,1.3|
3,1,7.9|
3,2,0.8|
3,4,10|
4,0,7.3|
4,1,5|
4,2,1.3|
4,3,9|
];
constraint_x4_x3=[
0,1,8.6|
0,2,3|
0,3,8.5|
0,4,8.2|
1,0,2.9|
1,2,3.4|
1,3,7.9|
1,4,9.6|
2,0,2.6|
2,1,9.9|
2,3,0.65|
2,4,4.4|
3,0,9.4|
3,1,3.6|
3,2,9.8|
3,4,3.9|
4,0,2.7|
4,1,7|
4,2,2|
4,3,0.98|
];
constraint_x1_y1=[
0,0,6.6|
0,1,5.9|
0,2,5.5|
0,3,8.7|
0,4,3.8|
1,0,4.1|
1,1,1.1|
1,2,2.6|
1,3,9.3|
1,4,7.5|
2,0,2.2|
2,1,7.3|
2,2,9.8|
2,3,9.8|
2,4,0.15|
3,0,7.1|
3,1,8.5|
3,2,8.3|
3,3,0.92|
3,4,6.4|
4,0,9.9|
4,1,4.6|
4,2,8.8|
4,3,7.8|
4,4,9.6|
];
constraint_x2_y2=[
0,0,2.8|
0,1,7.1|
0,2,4.5|
0,3,5.2|
0,4,2.1|
1,0,4.4|
1,1,2.7|
1,2,7.2|
1,3,1.9|
1,4,3.7|
2,0,8.5|
2,1,7.6|
2,2,1.9|
2,3,0.91|
2,4,6.3|
3,0,5.7|
3,1,6.9|
3,2,1.3|
3,3,2.5|
3,4,5.7|
4,0,6.8|
4,1,8|
4,2,8.4|
4,3,4.1|
4,4,6.6|
];
initial_distribution_y1=[0.24,0.31,0.15,0.13,0.17];
initial_distribution_y2=[0.3,0.053,0.21,0.33,0.12];
transition_y1=[
0.15,0.18,0.29,0.059,0.31|
0.26,0.069,0.17,0.23,0.27|
0.31,0.078,0.28,0.23,0.1|
0.17,0.41,0.34,0.025,0.054|
0.17,0.25,0.1,0.26,0.21|
];
transition_y2=[
0.1,0.12,0.16,0.35,0.27|
0.19,0.19,0.21,0.19,0.21|
0.18,0.2,0.23,0.26,0.14|
0.085,0.31,0.3,0.064,0.24|
0.33,0.3,0.033,0.2,0.14|
];
